Welcome to the CBC MILP Solver 
Version: 2.10.3 
Build Date: Dec 15 2019 

command line - /usr/local/lib/python3.10/site-packages/pulp/apis/../solverdir/cbc/osx/64/cbc /var/folders/hm/dzdqyztn1x51_92gccf_8k5w0000gn/T/481003c56d29494591d1dcfe5c85e231-pulp.mps timeMode elapsed branch printingOptions all solution /var/folders/hm/dzdqyztn1x51_92gccf_8k5w0000gn/T/481003c56d29494591d1dcfe5c85e231-pulp.sol (default strategy 1)
At line 2 NAME          MODEL
At line 3 ROWS
At line 369 COLUMNS
At line 5105 RHS
At line 5470 BOUNDS
At line 6201 ENDATA
Problem MODEL has 364 rows, 730 columns and 3276 elements
Coin0008I MODEL read with 0 errors
Option for timeMode changed from cpu to elapsed
Continuous objective value is 0 - 0.02 seconds
Cgl0003I 442 fixed, 0 tightened bounds, 0 strengthened rows, 5 substitutions
Cgl0004I processed model has 0 rows, 0 columns (0 integer (0 of which binary)) and 0 elements
Cbc3007W No integer variables - nothing to do
Cuts at root node changed objective from 0 to -1.79769e+308
Probing was tried 0 times and created 0 cuts of which 0 were active after adding rounds of cuts (0.000 seconds)
Gomory was tried 0 times and created 0 cuts of which 0 were active after adding rounds of cuts (0.000 seconds)
Knapsack was tried 0 times and created 0 cuts of which 0 were active after adding rounds of cuts (0.000 seconds)
Clique was tried 0 times and created 0 cuts of which 0 were active after adding rounds of cuts (0.000 seconds)
MixedIntegerRounding2 was tried 0 times and created 0 cuts of which 0 were active after adding rounds of cuts (0.000 seconds)
FlowCover was tried 0 times and created 0 cuts of which 0 were active after adding rounds of cuts (0.000 seconds)
TwoMirCuts was tried 0 times and created 0 cuts of which 0 were active after adding rounds of cuts (0.000 seconds)
ZeroHalf was tried 0 times and created 0 cuts of which 0 were active after adding rounds of cuts (0.000 seconds)

Result - Optimal solution found

Objective value:                0.00000000
Enumerated nodes:               0
Total iterations:               0
Time (CPU seconds):             0.05
Time (Wallclock seconds):       0.07

Option for printingOptions changed from normal to all
Total time (CPU seconds):       0.06   (Wallclock seconds):       0.08

